c not original file ! May have been modified for weighted vertex coloring problem (edges and vertices stay the same only weights may have been moved to an other file)
p edge 142 1246
e 1 2
e 1 3
e 1 4
e 1 5
e 1 6
e 1 7
e 1 18
e 1 37
e 1 48
e 1 58
e 1 67
e 1 80
e 1 90
e 1 116
e 1 135
e 2 3
e 2 4
e 2 5
e 2 6
e 2 11
e 2 21
e 2 41
e 2 51
e 2 61
e 2 83
e 2 102
e 2 108
e 2 119
e 2 127
e 3 4
e 3 5
e 3 6
e 3 30
e 3 52
e 3 62
e 3 70
e 3 92
e 3 103
e 3 109
e 3 120
e 3 138
e 4 5
e 4 6
e 4 31
e 4 42
e 4 64
e 4 72
e 4 84
e 4 93
e 4 104
e 4 129
e 4 139
e 5 6
e 5 13
e 5 43
e 5 73
e 5 85
e 5 111
e 5 130
e 6 14
e 6 24
e 6 33
e 6 54
e 6 65
e 6 75
e 6 95
e 6 112
e 6 132
e 7 8
e 7 9
e 7 10
e 7 11
e 7 12
e 7 13
e 7 14
e 7 15
e 7 16
e 7 18
e 7 37
e 7 48
e 7 58
e 7 67
e 7 80
e 7 90
e 7 116
e 7 135
e 8 9
e 8 10
e 8 11
e 8 12
e 8 13
e 8 14
e 8 15
e 8 16
e 8 38
e 8 81
e 8 106
e 8 136
e 9 10
e 9 11
e 9 12
e 9 13
e 9 14
e 9 15
e 9 16
e 9 19
e 9 28
e 9 39
e 9 49
e 9 59
e 9 68
e 9 82
e 9 100
e 9 107
e 9 117
e 9 137
e 10 11
e 10 12
e 10 13
e 10 14
e 10 15
e 10 16
e 10 20
e 10 29
e 10 40
e 10 50
e 10 60
e 10 69
e 10 91
e 10 101
e 10 118
e 10 126
e 11 12
e 11 13
e 11 14
e 11 15
e 11 16
e 11 21
e 11 41
e 11 51
e 11 61
e 11 83
e 11 102
e 11 108
e 11 119
e 11 127
e 12 13
e 12 14
e 12 15
e 12 16
e 12 22
e 12 53
e 12 63
e 12 71
e 12 110
e 12 121
e 12 128
e 13 14
e 13 15
e 13 16
e 13 43
e 13 73
e 13 85
e 13 111
e 13 130
e 14 15
e 14 16
e 14 24
e 14 33
e 14 54
e 14 65
e 14 75
e 14 95
e 14 112
e 14 132
e 15 16
e 15 25
e 15 34
e 15 44
e 15 55
e 15 76
e 15 87
e 15 96
e 15 113
e 15 122
e 16 45
e 16 56
e 16 77
e 16 88
e 16 97
e 16 114
e 16 123
e 16 133
e 16 141
e 17 18
e 17 19
e 17 20
e 17 21
e 17 22
e 17 23
e 17 24
e 17 25
e 17 26
e 17 27
e 17 36
e 17 47
e 17 57
e 17 66
e 17 79
e 17 99
e 17 115
e 17 125
e 17 134
e 18 19
e 18 20
e 18 21
e 18 22
e 18 23
e 18 24
e 18 25
e 18 26
e 18 37
e 18 48
e 18 58
e 18 67
e 18 80
e 18 90
e 18 116
e 18 135
e 19 20
e 19 21
e 19 22
e 19 23
e 19 24
e 19 25
e 19 26
e 19 28
e 19 39
e 19 49
e 19 59
e 19 68
e 19 82
e 19 100
e 19 107
e 19 117
e 19 137
e 20 21
e 20 22
e 20 23
e 20 24
e 20 25
e 20 26
e 20 29
e 20 40
e 20 50
e 20 60
e 20 69
e 20 91
e 20 101
e 20 118
e 20 126
e 21 22
e 21 23
e 21 24
e 21 25
e 21 26
e 21 41
e 21 51
e 21 61
e 21 83
e 21 102
e 21 108
e 21 119
e 21 127
e 22 23
e 22 24
e 22 25
e 22 26
e 22 53
e 22 63
e 22 71
e 22 110
e 22 121
e 22 128
e 23 24
e 23 25
e 23 26
e 23 32
e 23 74
e 23 86
e 23 94
e 23 105
e 23 131
e 23 140
e 24 25
e 24 26
e 24 33
e 24 54
e 24 65
e 24 75
e 24 95
e 24 112
e 24 132
e 25 26
e 25 34
e 25 44
e 25 55
e 25 76
e 25 87
e 25 96
e 25 113
e 25 122
e 26 35
e 26 46
e 26 78
e 26 89
e 26 98
e 26 124
e 26 142
e 27 28
e 27 29
e 27 30
e 27 31
e 27 32
e 27 33
e 27 34
e 27 35
e 27 36
e 27 47
e 27 57
e 27 66
e 27 79
e 27 99
e 27 115
e 27 125
e 27 134
e 28 29
e 28 30
e 28 31
e 28 32
e 28 33
e 28 34
e 28 35
e 28 39
e 28 49
e 28 59
e 28 68
e 28 82
e 28 100
e 28 107
e 28 117
e 28 137
e 29 30
e 29 31
e 29 32
e 29 33
e 29 34
e 29 35
e 29 40
e 29 50
e 29 60
e 29 69
e 29 91
e 29 101
e 29 118
e 29 126
e 30 31
e 30 32
e 30 33
e 30 34
e 30 35
e 30 52
e 30 62
e 30 70
e 30 92
e 30 103
e 30 109
e 30 120
e 30 138
e 31 32
e 31 33
e 31 34
e 31 35
e 31 42
e 31 64
e 31 72
e 31 84
e 31 93
e 31 104
e 31 129
e 31 139
e 32 33
e 32 34
e 32 35
e 32 74
e 32 86
e 32 94
e 32 105
e 32 131
e 32 140
e 33 34
e 33 35
e 33 54
e 33 65
e 33 75
e 33 95
e 33 112
e 33 132
e 34 35
e 34 44
e 34 55
e 34 76
e 34 87
e 34 96
e 34 113
e 34 122
e 35 46
e 35 78
e 35 89
e 35 98
e 35 124
e 35 142
e 36 37
e 36 38
e 36 39
e 36 40
e 36 41
e 36 42
e 36 43
e 36 44
e 36 45
e 36 46
e 36 47
e 36 57
e 36 66
e 36 79
e 36 99
e 36 115
e 36 125
e 36 134
e 37 38
e 37 39
e 37 40
e 37 41
e 37 42
e 37 43
e 37 44
e 37 45
e 37 46
e 37 48
e 37 58
e 37 67
e 37 80
e 37 90
e 37 116
e 37 135
e 38 39
e 38 40
e 38 41
e 38 42
e 38 43
e 38 44
e 38 45
e 38 46
e 38 81
e 38 106
e 38 136
e 39 40
e 39 41
e 39 42
e 39 43
e 39 44
e 39 45
e 39 46
e 39 49
e 39 59
e 39 68
e 39 82
e 39 100
e 39 107
e 39 117
e 39 137
e 40 41
e 40 42
e 40 43
e 40 44
e 40 45
e 40 46
e 40 50
e 40 60
e 40 69
e 40 91
e 40 101
e 40 118
e 40 126
e 41 42
e 41 43
e 41 44
e 41 45
e 41 46
e 41 51
e 41 61
e 41 83
e 41 102
e 41 108
e 41 119
e 41 127
e 42 43
e 42 44
e 42 45
e 42 46
e 42 64
e 42 72
e 42 84
e 42 93
e 42 104
e 42 129
e 42 139
e 43 44
e 43 45
e 43 46
e 43 73
e 43 85
e 43 111
e 43 130
e 44 45
e 44 46
e 44 55
e 44 76
e 44 87
e 44 96
e 44 113
e 44 122
e 45 46
e 45 56
e 45 77
e 45 88
e 45 97
e 45 114
e 45 123
e 45 133
e 45 141
e 46 78
e 46 89
e 46 98
e 46 124
e 46 142
e 47 48
e 47 49
e 47 50
e 47 51
e 47 52
e 47 53
e 47 54
e 47 55
e 47 56
e 47 57
e 47 66
e 47 79
e 47 99
e 47 115
e 47 125
e 47 134
e 48 49
e 48 50
e 48 51
e 48 52
e 48 53
e 48 54
e 48 55
e 48 56
e 48 58
e 48 67
e 48 80
e 48 90
e 48 116
e 48 135
e 49 50
e 49 51
e 49 52
e 49 53
e 49 54
e 49 55
e 49 56
e 49 59
e 49 68
e 49 82
e 49 100
e 49 107
e 49 117
e 49 137
e 50 51
e 50 52
e 50 53
e 50 54
e 50 55
e 50 56
e 50 60
e 50 69
e 50 91
e 50 101
e 50 118
e 50 126
e 51 52
e 51 53
e 51 54
e 51 55
e 51 56
e 51 61
e 51 83
e 51 102
e 51 108
e 51 119
e 51 127
e 52 53
e 52 54
e 52 55
e 52 56
e 52 62
e 52 70
e 52 92
e 52 103
e 52 109
e 52 120
e 52 138
e 53 54
e 53 55
e 53 56
e 53 63
e 53 71
e 53 110
e 53 121
e 53 128
e 54 55
e 54 56
e 54 65
e 54 75
e 54 95
e 54 112
e 54 132
e 55 56
e 55 76
e 55 87
e 55 96
e 55 113
e 55 122
e 56 77
e 56 88
e 56 97
e 56 114
e 56 123
e 56 133
e 56 141
e 57 58
e 57 59
e 57 60
e 57 61
e 57 62
e 57 63
e 57 64
e 57 65
e 57 66
e 57 79
e 57 99
e 57 115
e 57 125
e 57 134
e 58 59
e 58 60
e 58 61
e 58 62
e 58 63
e 58 64
e 58 65
e 58 67
e 58 80
e 58 90
e 58 116
e 58 135
e 59 60
e 59 61
e 59 62
e 59 63
e 59 64
e 59 65
e 59 68
e 59 82
e 59 100
e 59 107
e 59 117
e 59 137
e 60 61
e 60 62
e 60 63
e 60 64
e 60 65
e 60 69
e 60 91
e 60 101
e 60 118
e 60 126
e 61 62
e 61 63
e 61 64
e 61 65
e 61 83
e 61 102
e 61 108
e 61 119
e 61 127
e 62 63
e 62 64
e 62 65
e 62 70
e 62 92
e 62 103
e 62 109
e 62 120
e 62 138
e 63 64
e 63 65
e 63 71
e 63 110
e 63 121
e 63 128
e 64 65
e 64 72
e 64 84
e 64 93
e 64 104
e 64 129
e 64 139
e 65 75
e 65 95
e 65 112
e 65 132
e 66 67
e 66 68
e 66 69
e 66 70
e 66 71
e 66 72
e 66 73
e 66 74
e 66 75
e 66 76
e 66 77
e 66 78
e 66 79
e 66 99
e 66 115
e 66 125
e 66 134
e 67 68
e 67 69
e 67 70
e 67 71
e 67 72
e 67 73
e 67 74
e 67 75
e 67 76
e 67 77
e 67 78
e 67 80
e 67 90
e 67 116
e 67 135
e 68 69
e 68 70
e 68 71
e 68 72
e 68 73
e 68 74
e 68 75
e 68 76
e 68 77
e 68 78
e 68 82
e 68 100
e 68 107
e 68 117
e 68 137
e 69 70
e 69 71
e 69 72
e 69 73
e 69 74
e 69 75
e 69 76
e 69 77
e 69 78
e 69 91
e 69 101
e 69 118
e 69 126
e 70 71
e 70 72
e 70 73
e 70 74
e 70 75
e 70 76
e 70 77
e 70 78
e 70 92
e 70 103
e 70 109
e 70 120
e 70 138
e 71 72
e 71 73
e 71 74
e 71 75
e 71 76
e 71 77
e 71 78
e 71 110
e 71 121
e 71 128
e 72 73
e 72 74
e 72 75
e 72 76
e 72 77
e 72 78
e 72 84
e 72 93
e 72 104
e 72 129
e 72 139
e 73 74
e 73 75
e 73 76
e 73 77
e 73 78
e 73 85
e 73 111
e 73 130
e 74 75
e 74 76
e 74 77
e 74 78
e 74 86
e 74 94
e 74 105
e 74 131
e 74 140
e 75 76
e 75 77
e 75 78
e 75 95
e 75 112
e 75 132
e 76 77
e 76 78
e 76 87
e 76 96
e 76 113
e 76 122
e 77 78
e 77 88
e 77 97
e 77 114
e 77 123
e 77 133
e 77 141
e 78 89
e 78 98
e 78 124
e 78 142
e 79 80
e 79 81
e 79 82
e 79 83
e 79 84
e 79 85
e 79 86
e 79 87
e 79 88
e 79 89
e 79 99
e 79 115
e 79 125
e 79 134
e 80 81
e 80 82
e 80 83
e 80 84
e 80 85
e 80 86
e 80 87
e 80 88
e 80 89
e 80 90
e 80 116
e 80 135
e 81 82
e 81 83
e 81 84
e 81 85
e 81 86
e 81 87
e 81 88
e 81 89
e 81 106
e 81 136
e 82 83
e 82 84
e 82 85
e 82 86
e 82 87
e 82 88
e 82 89
e 82 100
e 82 107
e 82 117
e 82 137
e 83 84
e 83 85
e 83 86
e 83 87
e 83 88
e 83 89
e 83 102
e 83 108
e 83 119
e 83 127
e 84 85
e 84 86
e 84 87
e 84 88
e 84 89
e 84 93
e 84 104
e 84 129
e 84 139
e 85 86
e 85 87
e 85 88
e 85 89
e 85 111
e 85 130
e 86 87
e 86 88
e 86 89
e 86 94
e 86 105
e 86 131
e 86 140
e 87 88
e 87 89
e 87 96
e 87 113
e 87 122
e 88 89
e 88 97
e 88 114
e 88 123
e 88 133
e 88 141
e 89 98
e 89 124
e 89 142
e 90 91
e 90 92
e 90 93
e 90 94
e 90 95
e 90 96
e 90 97
e 90 98
e 90 116
e 90 135
e 91 92
e 91 93
e 91 94
e 91 95
e 91 96
e 91 97
e 91 98
e 91 101
e 91 118
e 91 126
e 92 93
e 92 94
e 92 95
e 92 96
e 92 97
e 92 98
e 92 103
e 92 109
e 92 120
e 92 138
e 93 94
e 93 95
e 93 96
e 93 97
e 93 98
e 93 104
e 93 129
e 93 139
e 94 95
e 94 96
e 94 97
e 94 98
e 94 105
e 94 131
e 94 140
e 95 96
e 95 97
e 95 98
e 95 112
e 95 132
e 96 97
e 96 98
e 96 113
e 96 122
e 97 98
e 97 114
e 97 123
e 97 133
e 97 141
e 98 124
e 98 142
e 99 100
e 99 101
e 99 102
e 99 103
e 99 104
e 99 105
e 99 115
e 99 125
e 99 134
e 100 101
e 100 102
e 100 103
e 100 104
e 100 105
e 100 107
e 100 117
e 100 137
e 101 102
e 101 103
e 101 104
e 101 105
e 101 118
e 101 126
e 102 103
e 102 104
e 102 105
e 102 108
e 102 119
e 102 127
e 103 104
e 103 105
e 103 109
e 103 120
e 103 138
e 104 105
e 104 129
e 104 139
e 105 131
e 105 140
e 106 107
e 106 108
e 106 109
e 106 110
e 106 111
e 106 112
e 106 113
e 106 114
e 106 136
e 107 108
e 107 109
e 107 110
e 107 111
e 107 112
e 107 113
e 107 114
e 107 117
e 107 137
e 108 109
e 108 110
e 108 111
e 108 112
e 108 113
e 108 114
e 108 119
e 108 127
e 109 110
e 109 111
e 109 112
e 109 113
e 109 114
e 109 120
e 109 138
e 110 111
e 110 112
e 110 113
e 110 114
e 110 121
e 110 128
e 111 112
e 111 113
e 111 114
e 111 130
e 112 113
e 112 114
e 112 132
e 113 114
e 113 122
e 114 123
e 114 133
e 114 141
e 115 116
e 115 117
e 115 118
e 115 119
e 115 120
e 115 121
e 115 122
e 115 123
e 115 124
e 115 125
e 115 134
e 116 117
e 116 118
e 116 119
e 116 120
e 116 121
e 116 122
e 116 123
e 116 124
e 116 135
e 117 118
e 117 119
e 117 120
e 117 121
e 117 122
e 117 123
e 117 124
e 117 137
e 118 119
e 118 120
e 118 121
e 118 122
e 118 123
e 118 124
e 118 126
e 119 120
e 119 121
e 119 122
e 119 123
e 119 124
e 119 127
e 120 121
e 120 122
e 120 123
e 120 124
e 120 138
e 121 122
e 121 123
e 121 124
e 121 128
e 122 123
e 122 124
e 123 124
e 123 133
e 123 141
e 124 142
e 125 126
e 125 127
e 125 128
e 125 129
e 125 130
e 125 131
e 125 132
e 125 133
e 125 134
e 126 127
e 126 128
e 126 129
e 126 130
e 126 131
e 126 132
e 126 133
e 127 128
e 127 129
e 127 130
e 127 131
e 127 132
e 127 133
e 128 129
e 128 130
e 128 131
e 128 132
e 128 133
e 129 130
e 129 131
e 129 132
e 129 133
e 129 139
e 130 131
e 130 132
e 130 133
e 131 132
e 131 133
e 131 140
e 132 133
e 133 141
e 134 135
e 134 136
e 134 137
e 134 138
e 134 139
e 134 140
e 134 141
e 134 142
e 135 136
e 135 137
e 135 138
e 135 139
e 135 140
e 135 141
e 135 142
e 136 137
e 136 138
e 136 139
e 136 140
e 136 141
e 136 142
e 137 138
e 137 139
e 137 140
e 137 141
e 137 142
e 138 139
e 138 140
e 138 141
e 138 142
e 139 140
e 139 141
e 139 142
e 140 141
e 140 142
e 141 142
